/*********************************************
 * OPL 12.6.0.0 Data
 * Author: Adrian Rodriguez Bazaga, Pau Rodriguez Esmerats
 * Creation Date: 30/11/2017 at 19:59:16
 *********************************************/

nNurses=1121;
maxConsec=2;
maxPresence=7;
maxHours=5;
minHours=1;
demand= [256 269 367 376 269 367 376 274 257 143 25 33 36 36 51 31 44 13 26 3 196 357 176 298  ];
